NAME : Unnamed.837.tour
COMMENT : Length = 837
COMMENT : Found by LKH [Keld Helsgaun] Tue Jan 13 16:45:17 2015
TYPE : TOUR
DIMENSION : 99
TOUR_SECTION
1
3
9
99
6
10
8
4
63
65
71
60
67
43
77
75
48
66
73
78
59
44
45
18
15
56
55
51
50
52
41
88
97
89
95
82
87
94
86
79
80
91
84
93
98
85
5
92
90
81
83
72
68
69
64
14
61
35
39
27
25
36
31
17
26
32
47
96
58
53
74
76
46
24
62
42
29
21
13
34
28
11
12
37
33
22
40
30
23
38
19
16
20
49
57
70
54
2
7
-1
EOF
